unsat
(define-fun f ((x0 (BitVec 64)) (x1 (BitVec 64))) (BitVec 64) (bvadd x0 #b0000000000000000000000000000000000000000000000000000000000001110))
(define-fun f ((x0 (BitVec 64)) (x1 (BitVec 64))) (BitVec 64) (bvadd x0 #b0000000000000000000000000000000000000000000000000000000000001110))
int-arith54.sl running time : 0 m .092694474 s
times : .092694474
